max_width = 39;
n_blocks = 29;
width = [15, 5, 4, 4, 3, 5, 4, 5, 3, 5, 3, 4, 3, 5, 4, 3, 3, 5, 4, 3, 5, 4, 3, 5, 4, 3, 5, 4, 3];
height = [39, 18, 16, 15, 15, 13, 12, 11, 11, 10, 10, 9, 9, 8, 8, 8, 7, 6, 6, 6, 5, 5, 5, 4, 4, 4, 3, 3, 3];
